100
32
19
17
31
26
3
11
31
12
12
7
29
10
4
13
18
6
32
12
32
11
24
10
1
7
21
30
21
14
11
22
10
2
24
28
7
15
20
18
19
4
11
30
23
22
8
26
25
15
3
30
28
17
29
13
17
30
19
15
28
27
7
1
7
20
31
32
23
7
7
21
22
20
11
21
26
20
4
17
27
16
3
31
4
16
17
11
31
7
2
28
31
10
17
31
15
7
3
22
22
3